<instance format="XCSP3" type="CSP">
  <variables>
    <var id="x0"> 6 8 9 </var>
    <var id="x1"> 6 10 </var>
    <var id="x2"> 5 6 8 </var>
    <var id="x3"> 4 5 10 </var>
    <var id="x4"> 4 7 9 10 </var>
    <var id="x5"> 4 5 </var>
    <var id="x6"> 5..10 </var>
    <var id="x7"> 1 5 9 12 </var>
    <var id="x8"> 5 6 9 10 12 </var>
    <var as="x8" id="x9"/>
    <var id="x10"> 5 10..12 </var>
    <var id="x11"> 5 6 9 11 </var>
    <var id="x12"> 1 5 6 10 </var>
    <var id="x13"> 5 11 </var>
    <var id="x14"> 6 8 9 </var>
    <var id="x15"> 8 9 12 </var>
    <var id="x16"> 9 10 12 14 </var>
    <var id="x17"> 6 8..10 12 14 </var>
    <var id="x18"> 4 10 12 14 </var>
    <var id="x19"> 4 9 10 </var>
    <var id="x20"> 6 10 </var>
    <var id="x21"> 2 6 9 11 </var>
    <var id="x22"> 2 9 12 </var>
    <var id="x23"> 6 9 11 12 </var>
    <var id="x24"> 6 7 9 12 </var>
    <var id="x25"> 7 11 12 </var>
    <var id="x26"> 11 12 14 </var>
    <var id="x27"> 6 7 9 </var>
    <var id="x28"> 1 5 9 12 13 </var>
    <var id="x29"> 1 11 12 </var>
    <var id="x30"> 5 9 11 12 </var>
    <var id="x31"> 1 5 12 </var>
    <var id="x32"> 0 5 11 12 </var>
    <var id="x33"> 5 9 11 </var>
    <var id="x34"> 1 5 </var>
    <var id="x35"> 2 3 5 8 9 12 </var>
    <var id="x36"> 6 8 9 12 </var>
    <var id="x37"> 2 6 12 </var>
    <var id="x38"> 5 9 12 </var>
    <var id="x39"> 8 12 </var>
    <var id="x40"> 2 3 9 </var>
    <var id="x41"> 2 5 </var>
    <var id="x42"> 0 1 8 </var>
    <var id="x43"> 0 4 8 12 </var>
    <var id="x44"> 7 10 12 </var>
    <var id="x45"> 4 7 10 12 </var>
    <var id="x46"> 0 4 10 12 </var>
    <var id="x47"> 0 4 7 10 </var>
    <var id="x48"> 1 7 8 10 </var>
    <var id="x49"> 1 2 10 11 14 </var>
    <var id="x50"> 9..11 14 </var>
    <var id="x51"> 1 14 </var>
    <var id="x52"> 10 11 13 </var>
    <var id="x53"> 2 9 10 </var>
    <var id="x54"> 1 2 10 </var>
    <var id="x55"> 1 9 10 </var>
    <var id="x56"> 0 4 8 </var>
    <var id="x57"> 1 3 5 8 </var>
    <var id="x58"> 5 8 10 </var>
    <var id="x59"> 4 8 10 </var>
    <var id="x60"> 0 3 4 10 </var>
    <var id="x61"> 3 5 </var>
    <var id="x62"> 1 5 8 10 </var>
    <var id="x63"> 0 4 9 </var>
    <var id="x64"> 2 10 </var>
    <var id="x65"> 5 7 9 10 </var>
    <var id="x66"> 4 5 7 9 10 </var>
    <var id="x67"> 5 </var>
    <var id="x68"> 0 2 4 5 </var>
    <var id="x69"> 5 7 9 10 </var>
    <var id="x70"> 2 3 5 8 </var>
    <var id="x71"> 5 6 </var>
    <var id="x72"> 5 6 8 14 </var>
    <var id="x73"> 8 11 </var>
    <var id="x74"> 2 3 </var>
    <var id="x75"> 2 3 5 6 11 14 </var>
    <var id="x76"> 2 5 11 14 </var>
    <var id="x77"> 2 6 8 9 </var>
    <var id="x78"> 2 5 8 9 12 </var>
    <var id="x79"> 2 6 12 </var>
    <var id="x80"> 5 6 8 12 </var>
    <var id="x81"> 5 6 8 9 12 </var>
    <var id="x82"> 2 5..7 </var>
    <var id="x83"> 2 5 </var>
    <var id="x84"> 6 11 12 </var>
    <var id="x85"> 6 10..12 14 </var>
    <var id="x86"> 6 10 12 </var>
    <var id="x87"> 3 6 12 14 </var>
    <var id="x88"> 6 10 12 14 </var>
    <var id="x89"> 3 6 11 14 </var>
    <var id="x90"> 11 13 14 </var>
    <var id="x91"> 6 11 </var>
    <var id="x92"> 5 7 11 14 </var>
    <var id="x93"> 4 7 11 </var>
    <var id="x94"> 4 5 11 14 </var>
    <var id="x95"> 3 5 6 11 14 </var>
    <var id="x96"> 3 5..7 </var>
    <var id="x97"> 5..7 </var>
    <var id="x98"> 0..2 11 </var>
    <var id="x99"> 1 2 5 12 </var>
    <var id="x100"> 0 11 12 </var>
    <var id="x101"> 5 10 12 </var>
    <var id="x102"> 5 10 12 14 </var>
    <var id="x103"> 10..12 </var>
    <var id="x104"> 2 5 11 14 </var>
    <var id="x105"> 1 2 5 10 </var>
  </variables>
  <constraints>
    <group>
      <allDifferent> %... </allDifferent>
      <args> x0 x1 x2 x3 x4 x5 x6 </args>
      <args> x7 x8 x9 x10 x11 x12 x13 </args>
      <args> x14 x15 x16 x17 x18 x19 x20 </args>
      <args> x21 x22 x23 x24 x25 x26 x27 </args>
      <args> x28 x29 x30 x31 x32 x33 x34 </args>
      <args> x35 x36 x37 x38 x39 x40 x41 </args>
      <args> x42 x43 x44 x45 x46 x47 x48 </args>
      <args> x49 x50 x51 x52 x53 x54 x55 </args>
      <args> x56 x57 x58 x59 x60 x61 x62 </args>
      <args> x63 x64 x65 x66 x67 x68 x69 </args>
      <args> x70 x71 x72 x73 x74 x75 x76 </args>
      <args> x77 x78 x79 x80 x81 x82 x83 </args>
      <args> x84 x85 x86 x87 x88 x89 x90 </args>
      <args> x91 x92 x93 x94 x95 x96 x97 </args>
      <args> x98 x99 x100 x101 x102 x103 x104 x105 </args>
      <args> x0 x14 x21 x42 x77 x91 x98 </args>
      <args> x7 x15 x22 x28 x35 x70 x78 x99 </args>
      <args> x23 x36 x43 x56 x63 x84 x100 </args>
      <args> x1 x29 x37 x49 x64 x79 x85 </args>
      <args> x16 x30 x38 x44 x50 x65 x92 </args>
      <args> x8 x24 x45 x66 x71 x86 x101 </args>
      <args> x2 x31 x51 x57 x67 x80 x87 </args>
      <args> x9 x17 x58 x72 x81 x88 x102 </args>
      <args> x25 x39 x52 x59 x73 x93 x103 </args>
      <args> x3 x10 x18 x26 x32 x46 x94 </args>
      <args> x4 x19 x40 x47 x53 x60 x74 </args>
      <args> x11 x33 x61 x75 x89 x95 x104 </args>
      <args> x12 x20 x34 x54 x82 x96 x105 </args>
      <args> x5 x13 x41 x68 x76 x83 x90 </args>
      <args> x6 x27 x48 x55 x62 x69 x97 </args>
    </group>
  </constraints>
</instance>

